sat
(:binary-propagations  315
 :decisions            605
 :del-clause           95
 :final-checks         10
 :max-generation       1
 :max-memory           23.80
 :memory               21.13
 :mk-bool-var          540
 :mk-clause            155
 :mk-clause-binary     344
 :num-allocs           12011297
 :num-checks           1
 :propagations         507
 :quant-instantiations 96
 :restarts             9
 :rlimit-count         216498
 :time                 0.04)
